,GA,time
0,337.0,337.0
1,307.0,307.0
2,364.0,364.0
3,331.0,331.0
4,307.0,307.0
5,297.0,297.0
6,311.0,311.0
7,264.0,264.0
8,313.0,313.0
9,321.0,321.0
10,301.0,301.0
11,361.0,361.0
12,356.0,356.0
13,347.0,347.0
14,263.0,263.0
15,330.0,330.0
16,318.0,318.0
17,288.0,288.0
18,271.0,271.0
19,293.0,293.0
20,305.0,305.0
21,273.0,273.0
22,314.0,314.0
23,358.0,358.0
24,339.0,339.0
25,402.0,402.0
26,376.0,376.0
27,288.0,288.0
28,269.0,269.0
29,270.0,270.0
30,277.0,277.0
31,289.0,289.0
32,315.0,315.0
33,298.0,298.0
34,316.0,316.0
35,302.0,302.0
36,330.0,330.0
37,343.0,343.0
38,288.0,288.0
39,342.0,342.0
40,327.0,327.0
41,258.0,258.0
42,295.0,295.0
43,308.0,308.0
44,291.0,291.0
45,306.0,306.0
46,303.0,303.0
47,312.0,312.0
48,370.0,370.0
49,343.0,343.0
50,305.0,305.0
51,306.0,306.0
52,316.0,316.0
53,299.0,299.0
54,370.0,370.0
55,303.0,303.0
56,347.0,347.0
57,361.0,361.0
58,318.0,318.0
59,313.0,313.0
60,365.0,365.0
61,308.0,308.0
62,324.0,324.0
63,340.0,340.0
64,308.0,308.0
65,294.0,294.0
66,281.0,281.0
67,331.0,331.0
68,301.0,301.0
69,330.0,330.0
70,296.0,296.0
71,357.0,357.0
72,265.0,265.0
73,350.0,350.0
74,279.0,279.0
75,351.0,351.0
76,328.0,328.0
77,324.0,324.0
78,386.0,386.0
79,309.0,309.0
80,333.0,333.0
81,361.0,361.0
82,335.0,335.0
83,280.0,280.0
84,304.0,304.0
85,324.0,324.0
86,374.0,374.0
87,341.0,341.0
88,349.0,349.0
89,298.0,298.0
90,329.0,329.0
91,331.0,331.0
92,258.0,258.0
93,336.0,336.0
94,315.0,315.0
95,352.0,352.0
96,334.0,334.0
97,315.0,315.0
98,306.0,306.0
99,282.0,282.0
